qbf_easy_train/easy_1220_SAT.qdimacs
p cnf 22 48
a 10 5 7 0
e 1 2 3 4 6 8 9 11 12 13 14 15 16 17 18 19 20 21 22 0
-3 -1 0
-3 -2 0
1 2 3 0
5 4 0
5 4 0
-4 -5 0
6 3 0
6 5 0
-3 -5 -6 0
7 6 0
7 2 0
-6 -2 -7 0
-9 -8 0
-9 4 0
8 -4 9 0
9 10 -11 0
-9 -10 -11 0
9 -10 11 0
-9 10 11 0
12 -7 0
12 11 0
7 -11 -12 0
-14 -13 0
-14 3 0
13 -3 14 0
-17 15 0
-17 -16 0
-15 16 17 0
18 14 0
18 -17 0
-14 17 -18 0
19 -4 0
19 -17 0
4 17 -19 0
-20 -19 0
-20 -1 0
19 1 20 0
21 -18 0
21 20 0
18 -20 -21 0
22 12 0
22 -21 0
-12 21 -22 0
-18 9 -20 0
-20 12 -21 10 0
-10 -9 -16 -19 0
-6 -3 20 19 12 15 -14 21 0
22 0
