sat_easy_train/easy_1220_SAT.dimacs
p cnf 113 375
3 -1 0
3 2 0
1 -2 -3 0
5 4 0
5 -4 0
-8 6 0
-8 7 0
-6 -7 8 0
5 -8 -9 0
-5 8 -9 0
5 8 9 0
-5 -8 9 0
-3 -9 -10 0
3 9 -10 0
-3 9 10 0
3 -9 10 0
-13 11 0
-13 12 0
-11 -12 13 0
14 10 0
14 -13 0
-10 13 -14 0
1 15 -16 0
-1 -15 -16 0
1 -15 16 0
-1 15 16 0
-6 -16 -17 0
6 16 -17 0
-6 16 17 0
6 -16 17 0
18 -14 0
18 17 0
14 -17 -18 0
10 -18 -19 0
-10 18 -19 0
10 18 19 0
-10 -18 19 0
22 -3 0
22 21 0
3 -21 -22 0
24 15 0
24 -23 0
-15 23 -24 0
-25 -24 0
-25 -12 0
24 12 25 0
-22 -25 -26 0
22 25 -26 0
-22 25 26 0
22 -25 26 0
27 20 0
27 26 0
-20 -26 -27 0
28 16 0
28 22 0
-16 -22 -28 0
29 -27 0
29 -28 0
27 28 -29 0
-19 29 -30 0
19 -29 -30 0
-19 -29 30 0
19 29 30 0
-32 -31 0
-32 22 0
31 -22 32 0
-33 32 0
-33 -8 0
-32 8 33 0
-33 8 -34 0
33 -8 -34 0
-33 -8 34 0
33 8 34 0
35 -12 0
35 26 0
12 -26 -35 0
-36 -5 0
-36 4 0
5 -4 36 0
-24 -36 -37 0
24 36 -37 0
-24 36 37 0
24 -36 37 0
-37 31 -38 0
37 -31 -38 0
-37 -31 38 0
37 31 38 0
20 24 -39 0
-20 -24 -39 0
20 -24 39 0
-20 24 39 0
40 39 0
40 20 0
-39 -20 -40 0
-9 -40 -41 0
9 40 -41 0
-9 40 41 0
9 -40 41 0
-39 -41 -42 0
39 41 -42 0
-39 41 42 0
39 -41 42 0
-40 42 -43 0
40 -42 -43 0
-40 -42 43 0
40 42 43 0
-6 43 -44 0
6 -43 -44 0
-6 -43 44 0
6 43 44 0
44 -41 -45 0
-44 41 -45 0
44 41 45 0
-44 -41 45 0
46 -38 0
46 45 0
38 -45 -46 0
-47 -35 0
-47 46 0
35 -46 47 0
-34 47 -48 0
34 -47 -48 0
-34 -47 48 0
34 47 48 0
-49 30 0
-49 -48 0
-30 48 49 0
-50 36 0
-50 10 0
-36 -10 50 0
51 -8 0
51 -8 0
8 -51 0
52 13 0
52 51 0
-13 -51 -52 0
50 -52 -53 0
-50 52 -53 0
50 52 53 0
-50 -52 53 0
54 43 0
54 1 0
-43 -1 -54 0
54 14 -55 0
-54 -14 -55 0
54 -14 55 0
-54 14 55 0
-56 54 0
-56 54 0
-54 56 0
-57 24 0
-57 -56 0
-24 56 57 0
58 -55 0
58 -57 0
55 57 -58 0
-59 -53 0
-59 58 0
53 -58 59 0
-60 13 0
-60 -31 0
-13 31 60 0
-61 -60 0
-61 51 0
60 -51 61 0
-62 -61 0
-62 26 0
61 -26 62 0
-64 63 0
-64 -11 0
-63 11 64 0
-62 -64 -65 0
62 64 -65 0
-62 64 65 0
62 -64 65 0
-59 -65 -66 0
59 65 -66 0
-59 65 66 0
59 -65 66 0
68 -67 0
68 -20 0
67 20 -68 0
69 68 0
69 -5 0
-68 5 -69 0
-71 67 0
-71 -70 0
-67 70 71 0
36 71 -72 0
-36 -71 -72 0
36 -71 72 0
-36 71 72 0
73 -72 0
73 7 0
72 -7 -73 0
-74 16 0
-74 73 0
-16 -73 74 0
-75 69 0
-75 74 0
-69 -74 75 0
76 -36 0
76 -26 0
36 26 -76 0
-77 75 0
-77 76 0
-75 -76 77 0
-21 -4 -78 0
21 4 -78 0
-21 4 78 0
21 -4 78 0
-77 -78 -79 0
77 78 -79 0
-77 78 79 0
77 -78 79 0
-80 21 0
-80 7 0
-21 -7 80 0
2 -80 -81 0
-2 80 -81 0
2 80 81 0
-2 -80 81 0
-79 81 -82 0
79 -81 -82 0
-79 -81 82 0
79 81 82 0
83 66 0
83 -82 0
-66 82 -83 0
51 3 -84 0
-51 -3 -84 0
51 -3 84 0
-51 3 84 0
-85 83 0
-85 84 0
-83 -84 85 0
49 -85 -86 0
-49 85 -86 0
49 85 86 0
-49 -85 86 0
68 -32 -87 0
-68 32 -87 0
68 32 87 0
-68 -32 87 0
-88 17 0
-88 9 0
-17 -9 88 0
88 63 -89 0
-88 -63 -89 0
88 -63 89 0
-88 63 89 0
-87 -89 -90 0
87 89 -90 0
-87 89 90 0
87 -89 90 0
67 -42 -91 0
-67 42 -91 0
67 42 91 0
-67 -42 91 0
92 -17 0
92 73 0
17 -73 -92 0
93 -91 0
93 -92 0
91 92 -93 0
90 93 -94 0
-90 -93 -94 0
90 -93 94 0
-90 93 94 0
-95 21 0
-95 -42 0
-21 42 95 0
25 95 -96 0
-25 -95 -96 0
25 -95 96 0
-25 95 96 0
97 96 0
97 -95 0
-96 95 -97 0
98 -54 0
98 -7 0
54 7 -98 0
-100 -51 0
-100 -99 0
51 99 100 0
101 98 0
101 -100 0
-98 100 -101 0
-102 97 0
-102 -101 0
-97 101 102 0
-103 63 0
-103 -2 0
-63 2 103 0
-104 102 0
-104 103 0
-102 -103 104 0
-105 -10 0
-105 9 0
10 -9 105 0
-106 -104 0
-106 105 0
104 -105 106 0
107 -94 0
107 -106 0
94 106 -107 0
108 86 0
108 -107 0
-86 107 -108 0
109 -11 0
109 51 0
11 -51 -109 0
110 -60 0
110 -70 0
60 70 -110 0
111 -110 0
111 36 0
110 -36 -111 0
-112 109 0
-112 -111 0
-109 111 112 0
-108 112 -113 0
108 -112 -113 0
-108 -112 113 0
108 112 113 0
60 29 44 -71 0
-71 -84 -29 -107 105 0
-82 83 104 0
-50 66 0
13 104 70 -21 0
-74 -89 0
-49 -74 -107 70 0
-22 45 18 0
-109 -75 -41 0
102 104 22 98 -71 -95 0
74 -77 63 0
80 17 -8 90 -7 0
-97 -31 50 82 0
-31 53 76 0
18 -69 -3 -63 0
56 22 35 -12 0
91 -99 30 -113 52 0
-52 57 53 -89 0
79 -64 0
-100 -105 -86 -82 0
52 -68 6 8 0
-28 100 26 0
-67 -16 34 -3 0
-84 76 -107 0
-64 69 -39 -82 94 0
50 -11 0
31 105 -22 -10 63 0
89 -111 12 -24 -72 -6 0
4 43 -28 -46 -15 17 0
87 88 15 -99 0
15 59 -94 0
109 -8 -10 -53 -66 67 0
-24 -28 -16 36 38 0
33 -25 18 0
-59 84 0
-27 -50 -32 -87 21 -10 0
-108 -110 -100 -25 0
-29 14 0
-4 26 -73 0
45 63 -12 100 0
6 81 0
-25 18 93 67 112 0
-79 -26 -96 0
32 -38 69 83 0
-24 12 0
-25 -93 0
24 -33 0
29 10 0
52 -94 -98 -54 0
113 0
